NAME           C:\Bruker\Hvattum\knapsack\Problems\class4\100-10-23.mps
ROWS
 N  OBJ
 L  CONSTR1
 L  CONSTR2
 L  CONSTR3
 L  CONSTR4
 L  CONSTR5
 L  CONSTR6
 L  CONSTR7
 L  CONSTR8
 L  CONSTR9
 L  CONSTR10
COLUMNS
    INT0001   'MARKER'  'INTORG'
    X1        OBJ       680
    X1        CONSTR1   772
    X1        CONSTR2   719
    X1        CONSTR3   529
    X1        CONSTR4   729
    X1        CONSTR5   508
    X1        CONSTR6   793
    X1        CONSTR7   56
    X1        CONSTR8   662
    X1        CONSTR9   8
    X1        CONSTR10  265
    X2        OBJ       824
    X2        CONSTR1   91
    X2        CONSTR2   942
    X2        CONSTR3   615
    X2        CONSTR4   806
    X2        CONSTR5   759
    X2        CONSTR6   545
    X2        CONSTR7   827
    X2        CONSTR8   425
    X2        CONSTR9   560
    X2        CONSTR10  246
    X3        OBJ       671
    X3        CONSTR1   191
    X3        CONSTR2   236
    X3        CONSTR3   165
    X3        CONSTR4   209
    X3        CONSTR5   548
    X3        CONSTR6   678
    X3        CONSTR7   795
    X3        CONSTR8   479
    X3        CONSTR9   767
    X3        CONSTR10  831
    X4        OBJ       836
    X4        CONSTR1   54
    X4        CONSTR2   855
    X4        CONSTR3   545
    X4        CONSTR4   630
    X4        CONSTR5   875
    X4        CONSTR6   470
    X4        CONSTR7   880
    X4        CONSTR8   921
    X4        CONSTR9   231
    X4        CONSTR10  622
    X5        OBJ       1154
    X5        CONSTR1   503
    X5        CONSTR2   960
    X5        CONSTR3   371
    X5        CONSTR4   380
    X5        CONSTR5   989
    X5        CONSTR6   887
    X5        CONSTR7   323
    X5        CONSTR8   847
    X5        CONSTR9   352
    X5        CONSTR10  970
    X6        OBJ       751
    X6        CONSTR1   526
    X6        CONSTR2   255
    X6        CONSTR3   484
    X6        CONSTR4   488
    X6        CONSTR5   568
    X6        CONSTR6   327
    X6        CONSTR7   953
    X6        CONSTR8   48
    X6        CONSTR9   426
    X6        CONSTR10  158
    X7        OBJ       693
    X7        CONSTR1   299
    X7        CONSTR2   135
    X7        CONSTR3   981
    X7        CONSTR4   6
    X7        CONSTR5   706
    X7        CONSTR6   458
    X7        CONSTR7   743
    X7        CONSTR8   85
    X7        CONSTR9   254
    X7        CONSTR10  504
    X8        OBJ       915
    X8        CONSTR1   598
    X8        CONSTR2   506
    X8        CONSTR3   582
    X8        CONSTR4   350
    X8        CONSTR5   53
    X8        CONSTR6   851
    X8        CONSTR7   813
    X8        CONSTR8   279
    X8        CONSTR9   660
    X8        CONSTR10  480
    X9        OBJ       500
    X9        CONSTR1   444
    X9        CONSTR2   942
    X9        CONSTR3   687
    X9        CONSTR4   32
    X9        CONSTR5   816
    X9        CONSTR6   22
    X9        CONSTR7   556
    X9        CONSTR8   233
    X9        CONSTR9   317
    X9        CONSTR10  273
    X10       OBJ       473
    X10       CONSTR1   850
    X10       CONSTR2   989
    X10       CONSTR3   307
    X10       CONSTR4   319
    X10       CONSTR5   459
    X10       CONSTR6   840
    X10       CONSTR7   143
    X10       CONSTR8   42
    X10       CONSTR9   697
    X10       CONSTR10  52
    X11       OBJ       832
    X11       CONSTR1   318
    X11       CONSTR2   89
    X11       CONSTR3   476
    X11       CONSTR4   884
    X11       CONSTR5   770
    X11       CONSTR6   772
    X11       CONSTR7   907
    X11       CONSTR8   768
    X11       CONSTR9   6
    X11       CONSTR10  271
    X12       OBJ       704
    X12       CONSTR1   464
    X12       CONSTR2   139
    X12       CONSTR3   636
    X12       CONSTR4   463
    X12       CONSTR5   119
    X12       CONSTR6   714
    X12       CONSTR7   47
    X12       CONSTR8   720
    X12       CONSTR9   449
    X12       CONSTR10  341
    X13       OBJ       1075
    X13       CONSTR1   625
    X13       CONSTR2   325
    X13       CONSTR3   937
    X13       CONSTR4   546
    X13       CONSTR5   717
    X13       CONSTR6   922
    X13       CONSTR7   317
    X13       CONSTR8   85
    X13       CONSTR9   362
    X13       CONSTR10  952
    X14       OBJ       947
    X14       CONSTR1   297
    X14       CONSTR2   576
    X14       CONSTR3   71
    X14       CONSTR4   703
    X14       CONSTR5   230
    X14       CONSTR6   644
    X14       CONSTR7   847
    X14       CONSTR8   359
    X14       CONSTR9   858
    X14       CONSTR10  478
    X15       OBJ       453
    X15       CONSTR1   37
    X15       CONSTR2   781
    X15       CONSTR3   309
    X15       CONSTR4   819
    X15       CONSTR5   364
    X15       CONSTR6   160
    X15       CONSTR7   452
    X15       CONSTR8   34
    X15       CONSTR9   170
    X15       CONSTR10  142
    X16       OBJ       948
    X16       CONSTR1   627
    X16       CONSTR2   78
    X16       CONSTR3   971
    X16       CONSTR4   29
    X16       CONSTR5   950
    X16       CONSTR6   990
    X16       CONSTR7   995
    X16       CONSTR8   207
    X16       CONSTR9   852
    X16       CONSTR10  767
    X17       OBJ       646
    X17       CONSTR1   567
    X17       CONSTR2   178
    X17       CONSTR3   550
    X17       CONSTR4   288
    X17       CONSTR5   495
    X17       CONSTR6   236
    X17       CONSTR7   483
    X17       CONSTR8   187
    X17       CONSTR9   670
    X17       CONSTR10  56
    X18       OBJ       872
    X18       CONSTR1   823
    X18       CONSTR2   881
    X18       CONSTR3   99
    X18       CONSTR4   979
    X18       CONSTR5   750
    X18       CONSTR6   378
    X18       CONSTR7   10
    X18       CONSTR8   3
    X18       CONSTR9   274
    X18       CONSTR10  563
    X19       OBJ       618
    X19       CONSTR1   393
    X19       CONSTR2   108
    X19       CONSTR3   109
    X19       CONSTR4   49
    X19       CONSTR5   652
    X19       CONSTR6   578
    X19       CONSTR7   579
    X19       CONSTR8   101
    X19       CONSTR9   855
    X19       CONSTR10  923
    X20       OBJ       991
    X20       CONSTR1   996
    X20       CONSTR2   442
    X20       CONSTR3   900
    X20       CONSTR4   212
    X20       CONSTR5   5
    X20       CONSTR6   37
    X20       CONSTR7   571
    X20       CONSTR8   887
    X20       CONSTR9   869
    X20       CONSTR10  208
    X21       OBJ       552
    X21       CONSTR1   680
    X21       CONSTR2   444
    X21       CONSTR3   537
    X21       CONSTR4   204
    X21       CONSTR5   541
    X21       CONSTR6   95
    X21       CONSTR7   557
    X21       CONSTR8   432
    X21       CONSTR9   634
    X21       CONSTR10  344
    X22       OBJ       710
    X22       CONSTR1   819
    X22       CONSTR2   158
    X22       CONSTR3   799
    X22       CONSTR4   598
    X22       CONSTR5   489
    X22       CONSTR6   752
    X22       CONSTR7   63
    X22       CONSTR8   200
    X22       CONSTR9   174
    X22       CONSTR10  360
    X23       OBJ       558
    X23       CONSTR1   905
    X23       CONSTR2   257
    X23       CONSTR3   922
    X23       CONSTR4   375
    X23       CONSTR5   218
    X23       CONSTR6   977
    X23       CONSTR7   688
    X23       CONSTR8   508
    X23       CONSTR9   172
    X23       CONSTR10  7
    X24       OBJ       885
    X24       CONSTR1   403
    X24       CONSTR2   333
    X24       CONSTR3   777
    X24       CONSTR4   731
    X24       CONSTR5   221
    X24       CONSTR6   564
    X24       CONSTR7   494
    X24       CONSTR8   318
    X24       CONSTR9   45
    X24       CONSTR10  879
    X25       OBJ       974
    X25       CONSTR1   611
    X25       CONSTR2   22
    X25       CONSTR3   513
    X25       CONSTR4   705
    X25       CONSTR5   736
    X25       CONSTR6   39
    X25       CONSTR7   821
    X25       CONSTR8   130
    X25       CONSTR9   993
    X25       CONSTR10  816
    X26       OBJ       653
    X26       CONSTR1   794
    X26       CONSTR2   882
    X26       CONSTR3   725
    X26       CONSTR4   53
    X26       CONSTR5   786
    X26       CONSTR6   862
    X26       CONSTR7   232
    X26       CONSTR8   161
    X26       CONSTR9   727
    X26       CONSTR10  715
    X27       OBJ       459
    X27       CONSTR1   758
    X27       CONSTR2   39
    X27       CONSTR3   897
    X27       CONSTR4   173
    X27       CONSTR5   749
    X27       CONSTR6   515
    X27       CONSTR7   76
    X27       CONSTR8   124
    X27       CONSTR9   167
    X27       CONSTR10  300
    X28       OBJ       760
    X28       CONSTR1   63
    X28       CONSTR2   288
    X28       CONSTR3   553
    X28       CONSTR4   51
    X28       CONSTR5   186
    X28       CONSTR6   618
    X28       CONSTR7   611
    X28       CONSTR8   236
    X28       CONSTR9   743
    X28       CONSTR10  833
    X29       OBJ       859
    X29       CONSTR1   687
    X29       CONSTR2   725
    X29       CONSTR3   960
    X29       CONSTR4   599
    X29       CONSTR5   123
    X29       CONSTR6   959
    X29       CONSTR7   865
    X29       CONSTR8   884
    X29       CONSTR9   827
    X29       CONSTR10  404
    X30       OBJ       1002
    X30       CONSTR1   740
    X30       CONSTR2   833
    X30       CONSTR3   494
    X30       CONSTR4   17
    X30       CONSTR5   544
    X30       CONSTR6   282
    X30       CONSTR7   661
    X30       CONSTR8   958
    X30       CONSTR9   915
    X30       CONSTR10  529
    X31       OBJ       1021
    X31       CONSTR1   720
    X31       CONSTR2   435
    X31       CONSTR3   273
    X31       CONSTR4   989
    X31       CONSTR5   735
    X31       CONSTR6   648
    X31       CONSTR7   290
    X31       CONSTR8   784
    X31       CONSTR9   263
    X31       CONSTR10  395
    X32       OBJ       620
    X32       CONSTR1   438
    X32       CONSTR2   294
    X32       CONSTR3   624
    X32       CONSTR4   950
    X32       CONSTR5   27
    X32       CONSTR6   915
    X32       CONSTR7   29
    X32       CONSTR8   546
    X32       CONSTR9   57
    X32       CONSTR10  368
    X33       OBJ       764
    X33       CONSTR1   681
    X33       CONSTR2   689
    X33       CONSTR3   180
    X33       CONSTR4   982
    X33       CONSTR5   36
    X33       CONSTR6   383
    X33       CONSTR7   945
    X33       CONSTR8   626
    X33       CONSTR9   344
    X33       CONSTR10  377
    X34       OBJ       649
    X34       CONSTR1   795
    X34       CONSTR2   252
    X34       CONSTR3   515
    X34       CONSTR4   805
    X34       CONSTR5   126
    X34       CONSTR6   666
    X34       CONSTR7   413
    X34       CONSTR8   698
    X34       CONSTR9   973
    X34       CONSTR10  792
    X35       OBJ       790
    X35       CONSTR1   619
    X35       CONSTR2   80
    X35       CONSTR3   211
    X35       CONSTR4   226
    X35       CONSTR5   654
    X35       CONSTR6   142
    X35       CONSTR7   859
    X35       CONSTR8   623
    X35       CONSTR9   61
    X35       CONSTR10  504
    X36       OBJ       867
    X36       CONSTR1   522
    X36       CONSTR2   627
    X36       CONSTR3   807
    X36       CONSTR4   312
    X36       CONSTR5   911
    X36       CONSTR6   33
    X36       CONSTR7   197
    X36       CONSTR8   746
    X36       CONSTR9   66
    X36       CONSTR10  503
    X37       OBJ       557
    X37       CONSTR1   198
    X37       CONSTR2   46
    X37       CONSTR3   483
    X37       CONSTR4   316
    X37       CONSTR5   684
    X37       CONSTR6   479
    X37       CONSTR7   318
    X37       CONSTR8   836
    X37       CONSTR9   973
    X37       CONSTR10  434
    X38       OBJ       818
    X38       CONSTR1   87
    X38       CONSTR2   985
    X38       CONSTR3   821
    X38       CONSTR4   780
    X38       CONSTR5   416
    X38       CONSTR6   388
    X38       CONSTR7   408
    X38       CONSTR8   542
    X38       CONSTR9   431
    X38       CONSTR10  891
    X39       OBJ       595
    X39       CONSTR1   185
    X39       CONSTR2   806
    X39       CONSTR3   366
    X39       CONSTR4   480
    X39       CONSTR5   720
    X39       CONSTR6   503
    X39       CONSTR7   587
    X39       CONSTR8   263
    X39       CONSTR9   2
    X39       CONSTR10  239
    X40       OBJ       696
    X40       CONSTR1   109
    X40       CONSTR2   686
    X40       CONSTR3   729
    X40       CONSTR4   718
    X40       CONSTR5   216
    X40       CONSTR6   122
    X40       CONSTR7   387
    X40       CONSTR8   970
    X40       CONSTR9   136
    X40       CONSTR10  329
    X41       OBJ       697
    X41       CONSTR1   70
    X41       CONSTR2   944
    X41       CONSTR3   369
    X41       CONSTR4   151
    X41       CONSTR5   791
    X41       CONSTR6   767
    X41       CONSTR7   567
    X41       CONSTR8   986
    X41       CONSTR9   472
    X41       CONSTR10  567
    X42       OBJ       518
    X42       CONSTR1   67
    X42       CONSTR2   392
    X42       CONSTR3   355
    X42       CONSTR4   703
    X42       CONSTR5   346
    X42       CONSTR6   405
    X42       CONSTR7   557
    X42       CONSTR8   595
    X42       CONSTR9   301
    X42       CONSTR10  649
    X43       OBJ       571
    X43       CONSTR1   46
    X43       CONSTR2   98
    X43       CONSTR3   852
    X43       CONSTR4   792
    X43       CONSTR5   476
    X43       CONSTR6   627
    X43       CONSTR7   367
    X43       CONSTR8   909
    X43       CONSTR9   231
    X43       CONSTR10  900
    X44       OBJ       551
    X44       CONSTR1   258
    X44       CONSTR2   823
    X44       CONSTR3   505
    X44       CONSTR4   601
    X44       CONSTR5   953
    X44       CONSTR6   597
    X44       CONSTR7   290
    X44       CONSTR8   576
    X44       CONSTR9   536
    X44       CONSTR10  29
    X45       OBJ       549
    X45       CONSTR1   678
    X45       CONSTR2   369
    X45       CONSTR3   697
    X45       CONSTR4   97
    X45       CONSTR5   756
    X45       CONSTR6   762
    X45       CONSTR7   187
    X45       CONSTR8   700
    X45       CONSTR9   562
    X45       CONSTR10  314
    X46       OBJ       452
    X46       CONSTR1   261
    X46       CONSTR2   901
    X46       CONSTR3   335
    X46       CONSTR4   385
    X46       CONSTR5   137
    X46       CONSTR6   274
    X46       CONSTR7   412
    X46       CONSTR8   962
    X46       CONSTR9   337
    X46       CONSTR10  29
    X47       OBJ       705
    X47       CONSTR1   791
    X47       CONSTR2   148
    X47       CONSTR3   623
    X47       CONSTR4   418
    X47       CONSTR5   408
    X47       CONSTR6   855
    X47       CONSTR7   171
    X47       CONSTR8   228
    X47       CONSTR9   326
    X47       CONSTR10  155
    X48       OBJ       532
    X48       CONSTR1   33
    X48       CONSTR2   807
    X48       CONSTR3   644
    X48       CONSTR4   833
    X48       CONSTR5   583
    X48       CONSTR6   441
    X48       CONSTR7   126
    X48       CONSTR8   853
    X48       CONSTR9   29
    X48       CONSTR10  98
    X49       OBJ       1048
    X49       CONSTR1   796
    X49       CONSTR2   386
    X49       CONSTR3   77
    X49       CONSTR4   526
    X49       CONSTR5   717
    X49       CONSTR6   798
    X49       CONSTR7   837
    X49       CONSTR8   350
    X49       CONSTR9   114
    X49       CONSTR10  977
    X50       OBJ       537
    X50       CONSTR1   400
    X50       CONSTR2   440
    X50       CONSTR3   304
    X50       CONSTR4   299
    X50       CONSTR5   349
    X50       CONSTR6   954
    X50       CONSTR7   499
    X50       CONSTR8   636
    X50       CONSTR9   325
    X50       CONSTR10  3
    X51       OBJ       675
    X51       CONSTR1   88
    X51       CONSTR2   508
    X51       CONSTR3   385
    X51       CONSTR4   929
    X51       CONSTR5   86
    X51       CONSTR6   763
    X51       CONSTR7   6
    X51       CONSTR8   721
    X51       CONSTR9   516
    X51       CONSTR10  835
    X52       OBJ       734
    X52       CONSTR1   513
    X52       CONSTR2   322
    X52       CONSTR3   810
    X52       CONSTR4   913
    X52       CONSTR5   888
    X52       CONSTR6   219
    X52       CONSTR7   590
    X52       CONSTR8   129
    X52       CONSTR9   276
    X52       CONSTR10  714
    X53       OBJ       680
    X53       CONSTR1   201
    X53       CONSTR2   322
    X53       CONSTR3   5
    X53       CONSTR4   335
    X53       CONSTR5   732
    X53       CONSTR6   908
    X53       CONSTR7   634
    X53       CONSTR8   981
    X53       CONSTR9   140
    X53       CONSTR10  171
    X54       OBJ       907
    X54       CONSTR1   162
    X54       CONSTR2   534
    X54       CONSTR3   141
    X54       CONSTR4   607
    X54       CONSTR5   917
    X54       CONSTR6   632
    X54       CONSTR7   425
    X54       CONSTR8   432
    X54       CONSTR9   333
    X54       CONSTR10  119
    X55       OBJ       441
    X55       CONSTR1   471
    X55       CONSTR2   241
    X55       CONSTR3   149
    X55       CONSTR4   68
    X55       CONSTR5   389
    X55       CONSTR6   221
    X55       CONSTR7   340
    X55       CONSTR8   968
    X55       CONSTR9   827
    X55       CONSTR10  476
    X56       OBJ       932
    X56       CONSTR1   506
    X56       CONSTR2   981
    X56       CONSTR3   748
    X56       CONSTR4   231
    X56       CONSTR5   878
    X56       CONSTR6   270
    X56       CONSTR7   490
    X56       CONSTR8   586
    X56       CONSTR9   797
    X56       CONSTR10  808
    X57       OBJ       1071
    X57       CONSTR1   961
    X57       CONSTR2   809
    X57       CONSTR3   57
    X57       CONSTR4   820
    X57       CONSTR5   705
    X57       CONSTR6   271
    X57       CONSTR7   940
    X57       CONSTR8   285
    X57       CONSTR9   275
    X57       CONSTR10  923
    X58       OBJ       564
    X58       CONSTR1   677
    X58       CONSTR2   693
    X58       CONSTR3   270
    X58       CONSTR4   709
    X58       CONSTR5   321
    X58       CONSTR6   370
    X58       CONSTR7   85
    X58       CONSTR8   536
    X58       CONSTR9   912
    X58       CONSTR10  389
    X59       OBJ       667
    X59       CONSTR1   803
    X59       CONSTR2   62
    X59       CONSTR3   153
    X59       CONSTR4   786
    X59       CONSTR5   641
    X59       CONSTR6   239
    X59       CONSTR7   39
    X59       CONSTR8   416
    X59       CONSTR9   713
    X59       CONSTR10  594
    X60       OBJ       1081
    X60       CONSTR1   882
    X60       CONSTR2   839
    X60       CONSTR3   884
    X60       CONSTR4   719
    X60       CONSTR5   690
    X60       CONSTR6   935
    X60       CONSTR7   483
    X60       CONSTR8   644
    X60       CONSTR9   906
    X60       CONSTR10  384
    X61       OBJ       728
    X61       CONSTR1   9
    X61       CONSTR2   163
    X61       CONSTR3   119
    X61       CONSTR4   163
    X61       CONSTR5   645
    X61       CONSTR6   87
    X61       CONSTR7   860
    X61       CONSTR8   870
    X61       CONSTR9   196
    X61       CONSTR10  717
    X62       OBJ       613
    X62       CONSTR1   309
    X62       CONSTR2   498
    X62       CONSTR3   594
    X62       CONSTR4   390
    X62       CONSTR5   918
    X62       CONSTR6   579
    X62       CONSTR7   52
    X62       CONSTR8   378
    X62       CONSTR9   242
    X62       CONSTR10  8
    X63       OBJ       718
    X63       CONSTR1   924
    X63       CONSTR2   878
    X63       CONSTR3   952
    X63       CONSTR4   915
    X63       CONSTR5   203
    X63       CONSTR6   833
    X63       CONSTR7   748
    X63       CONSTR8   39
    X63       CONSTR9   378
    X63       CONSTR10  713
    X64       OBJ       815
    X64       CONSTR1   67
    X64       CONSTR2   937
    X64       CONSTR3   487
    X64       CONSTR4   556
    X64       CONSTR5   112
    X64       CONSTR6   167
    X64       CONSTR7   381
    X64       CONSTR8   695
    X64       CONSTR9   701
    X64       CONSTR10  203
    X65       OBJ       531
    X65       CONSTR1   700
    X65       CONSTR2   373
    X65       CONSTR3   755
    X65       CONSTR4   755
    X65       CONSTR5   589
    X65       CONSTR6   235
    X65       CONSTR7   394
    X65       CONSTR8   138
    X65       CONSTR9   814
    X65       CONSTR10  547
    X66       OBJ       687
    X66       CONSTR1   621
    X66       CONSTR2   851
    X66       CONSTR3   599
    X66       CONSTR4   836
    X66       CONSTR5   916
    X66       CONSTR6   944
    X66       CONSTR7   99
    X66       CONSTR8   671
    X66       CONSTR9   244
    X66       CONSTR10  331
    X67       OBJ       383
    X67       CONSTR1   121
    X67       CONSTR2   849
    X67       CONSTR3   106
    X67       CONSTR4   46
    X67       CONSTR5   102
    X67       CONSTR6   766
    X67       CONSTR7   6
    X67       CONSTR8   222
    X67       CONSTR9   958
    X67       CONSTR10  391
    X68       OBJ       598
    X68       CONSTR1   222
    X68       CONSTR2   750
    X68       CONSTR3   620
    X68       CONSTR4   262
    X68       CONSTR5   815
    X68       CONSTR6   264
    X68       CONSTR7   117
    X68       CONSTR8   299
    X68       CONSTR9   604
    X68       CONSTR10  863
    X69       OBJ       412
    X69       CONSTR1   14
    X69       CONSTR2   257
    X69       CONSTR3   594
    X69       CONSTR4   455
    X69       CONSTR5   768
    X69       CONSTR6   128
    X69       CONSTR7   212
    X69       CONSTR8   351
    X69       CONSTR9   498
    X69       CONSTR10  653
    X70       OBJ       731
    X70       CONSTR1   778
    X70       CONSTR2   108
    X70       CONSTR3   142
    X70       CONSTR4   566
    X70       CONSTR5   758
    X70       CONSTR6   829
    X70       CONSTR7   859
    X70       CONSTR8   350
    X70       CONSTR9   726
    X70       CONSTR10  97
    X71       OBJ       434
    X71       CONSTR1   236
    X71       CONSTR2   390
    X71       CONSTR3   546
    X71       CONSTR4   247
    X71       CONSTR5   142
    X71       CONSTR6   511
    X71       CONSTR7   502
    X71       CONSTR8   194
    X71       CONSTR9   986
    X71       CONSTR10  399
    X72       OBJ       523
    X72       CONSTR1   434
    X72       CONSTR2   73
    X72       CONSTR3   753
    X72       CONSTR4   579
    X72       CONSTR5   605
    X72       CONSTR6   92
    X72       CONSTR7   314
    X72       CONSTR8   509
    X72       CONSTR9   819
    X72       CONSTR10  536
    X73       OBJ       596
    X73       CONSTR1   53
    X73       CONSTR2   74
    X73       CONSTR3   997
    X73       CONSTR4   203
    X73       CONSTR5   119
    X73       CONSTR6   643
    X73       CONSTR7   992
    X73       CONSTR8   908
    X73       CONSTR9   207
    X73       CONSTR10  285
    X74       OBJ       641
    X74       CONSTR1   13
    X74       CONSTR2   938
    X74       CONSTR3   562
    X74       CONSTR4   125
    X74       CONSTR5   182
    X74       CONSTR6   469
    X74       CONSTR7   638
    X74       CONSTR8   14
    X74       CONSTR9   249
    X74       CONSTR10  413
    X75       OBJ       814
    X75       CONSTR1   55
    X75       CONSTR2   278
    X75       CONSTR3   546
    X75       CONSTR4   45
    X75       CONSTR5   865
    X75       CONSTR6   322
    X75       CONSTR7   573
    X75       CONSTR8   1000
    X75       CONSTR9   647
    X75       CONSTR10  195
    X76       OBJ       581
    X76       CONSTR1   83
    X76       CONSTR2   776
    X76       CONSTR3   354
    X76       CONSTR4   614
    X76       CONSTR5   517
    X76       CONSTR6   8
    X76       CONSTR7   925
    X76       CONSTR8   382
    X76       CONSTR9   453
    X76       CONSTR10  809
    X77       OBJ       872
    X77       CONSTR1   330
    X77       CONSTR2   831
    X77       CONSTR3   278
    X77       CONSTR4   256
    X77       CONSTR5   39
    X77       CONSTR6   168
    X77       CONSTR7   369
    X77       CONSTR8   750
    X77       CONSTR9   170
    X77       CONSTR10  735
    X78       OBJ       849
    X78       CONSTR1   41
    X78       CONSTR2   409
    X78       CONSTR3   156
    X78       CONSTR4   480
    X78       CONSTR5   791
    X78       CONSTR6   747
    X78       CONSTR7   90
    X78       CONSTR8   677
    X78       CONSTR9   575
    X78       CONSTR10  65
    X79       OBJ       677
    X79       CONSTR1   82
    X79       CONSTR2   393
    X79       CONSTR3   673
    X79       CONSTR4   492
    X79       CONSTR5   818
    X79       CONSTR6   592
    X79       CONSTR7   7
    X79       CONSTR8   989
    X79       CONSTR9   533
    X79       CONSTR10  982
    X80       OBJ       595
    X80       CONSTR1   419
    X80       CONSTR2   476
    X80       CONSTR3   88
    X80       CONSTR4   31
    X80       CONSTR5   936
    X80       CONSTR6   300
    X80       CONSTR7   504
    X80       CONSTR8   432
    X80       CONSTR9   274
    X80       CONSTR10  49
    X81       OBJ       817
    X81       CONSTR1   412
    X81       CONSTR2   415
    X81       CONSTR3   499
    X81       CONSTR4   1000
    X81       CONSTR5   920
    X81       CONSTR6   697
    X81       CONSTR7   443
    X81       CONSTR8   784
    X81       CONSTR9   712
    X81       CONSTR10  312
    X82       OBJ       731
    X82       CONSTR1   545
    X82       CONSTR2   589
    X82       CONSTR3   209
    X82       CONSTR4   55
    X82       CONSTR5   327
    X82       CONSTR6   636
    X82       CONSTR7   157
    X82       CONSTR8   595
    X82       CONSTR9   783
    X82       CONSTR10  416
    X83       OBJ       803
    X83       CONSTR1   828
    X83       CONSTR2   724
    X83       CONSTR3   464
    X83       CONSTR4   87
    X83       CONSTR5   162
    X83       CONSTR6   921
    X83       CONSTR7   448
    X83       CONSTR8   464
    X83       CONSTR9   558
    X83       CONSTR10  309
    X84       OBJ       659
    X84       CONSTR1   26
    X84       CONSTR2   421
    X84       CONSTR3   947
    X84       CONSTR4   311
    X84       CONSTR5   59
    X84       CONSTR6   728
    X84       CONSTR7   816
    X84       CONSTR8   664
    X84       CONSTR9   544
    X84       CONSTR10  534
    X85       OBJ       666
    X85       CONSTR1   959
    X85       CONSTR2   416
    X85       CONSTR3   813
    X85       CONSTR4   360
    X85       CONSTR5   395
    X85       CONSTR6   53
    X85       CONSTR7   191
    X85       CONSTR8   740
    X85       CONSTR9   219
    X85       CONSTR10  901
    X86       OBJ       1087
    X86       CONSTR1   103
    X86       CONSTR2   258
    X86       CONSTR3   886
    X86       CONSTR4   889
    X86       CONSTR5   651
    X86       CONSTR6   401
    X86       CONSTR7   659
    X86       CONSTR8   654
    X86       CONSTR9   929
    X86       CONSTR10  562
    X87       OBJ       889
    X87       CONSTR1   925
    X87       CONSTR2   966
    X87       CONSTR3   560
    X87       CONSTR4   75
    X87       CONSTR5   845
    X87       CONSTR6   696
    X87       CONSTR7   179
    X87       CONSTR8   217
    X87       CONSTR9   362
    X87       CONSTR10  156
    X88       OBJ       569
    X88       CONSTR1   596
    X88       CONSTR2   624
    X88       CONSTR3   943
    X88       CONSTR4   370
    X88       CONSTR5   494
    X88       CONSTR6   389
    X88       CONSTR7   554
    X88       CONSTR8   585
    X88       CONSTR9   361
    X88       CONSTR10  122
    X89       OBJ       583
    X89       CONSTR1   806
    X89       CONSTR2   455
    X89       CONSTR3   904
    X89       CONSTR4   424
    X89       CONSTR5   886
    X89       CONSTR6   374
    X89       CONSTR7   357
    X89       CONSTR8   53
    X89       CONSTR9   566
    X89       CONSTR10  817
    X90       OBJ       894
    X90       CONSTR1   683
    X90       CONSTR2   852
    X90       CONSTR3   577
    X90       CONSTR4   382
    X90       CONSTR5   520
    X90       CONSTR6   269
    X90       CONSTR7   31
    X90       CONSTR8   252
    X90       CONSTR9   326
    X90       CONSTR10  962
    X91       OBJ       919
    X91       CONSTR1   828
    X91       CONSTR2   861
    X91       CONSTR3   235
    X91       CONSTR4   684
    X91       CONSTR5   590
    X91       CONSTR6   366
    X91       CONSTR7   735
    X91       CONSTR8   830
    X91       CONSTR9   878
    X91       CONSTR10  160
    X92       OBJ       989
    X92       CONSTR1   862
    X92       CONSTR2   696
    X92       CONSTR3   840
    X92       CONSTR4   762
    X92       CONSTR5   680
    X92       CONSTR6   648
    X92       CONSTR7   895
    X92       CONSTR8   911
    X92       CONSTR9   736
    X92       CONSTR10  880
    X93       OBJ       755
    X93       CONSTR1   822
    X93       CONSTR2   807
    X93       CONSTR3   432
    X93       CONSTR4   548
    X93       CONSTR5   775
    X93       CONSTR6   865
    X93       CONSTR7   853
    X93       CONSTR8   535
    X93       CONSTR9   728
    X93       CONSTR10  315
    X94       OBJ       647
    X94       CONSTR1   378
    X94       CONSTR2   774
    X94       CONSTR3   399
    X94       CONSTR4   564
    X94       CONSTR5   946
    X94       CONSTR6   738
    X94       CONSTR7   432
    X94       CONSTR8   466
    X94       CONSTR9   309
    X94       CONSTR10  736
    X95       OBJ       1125
    X95       CONSTR1   646
    X95       CONSTR2   963
    X95       CONSTR3   836
    X95       CONSTR4   792
    X95       CONSTR5   514
    X95       CONSTR6   536
    X95       CONSTR7   328
    X95       CONSTR8   393
    X95       CONSTR9   827
    X95       CONSTR10  720
    X96       OBJ       700
    X96       CONSTR1   97
    X96       CONSTR2   357
    X96       CONSTR3   926
    X96       CONSTR4   960
    X96       CONSTR5   707
    X96       CONSTR6   167
    X96       CONSTR7   423
    X96       CONSTR8   726
    X96       CONSTR9   651
    X96       CONSTR10  189
    X97       OBJ       422
    X97       CONSTR1   630
    X97       CONSTR2   522
    X97       CONSTR3   255
    X97       CONSTR4   287
    X97       CONSTR5   177
    X97       CONSTR6   115
    X97       CONSTR7   459
    X97       CONSTR8   69
    X97       CONSTR9   634
    X97       CONSTR10  21
    X98       OBJ       1000
    X98       CONSTR1   962
    X98       CONSTR2   284
    X98       CONSTR3   980
    X98       CONSTR4   995
    X98       CONSTR5   696
    X98       CONSTR6   300
    X98       CONSTR7   254
    X98       CONSTR8   967
    X98       CONSTR9   277
    X98       CONSTR10  768
    X99       OBJ       789
    X99       CONSTR1   921
    X99       CONSTR2   967
    X99       CONSTR3   920
    X99       CONSTR4   301
    X99       CONSTR5   156
    X99       CONSTR6   664
    X99       CONSTR7   806
    X99       CONSTR8   675
    X99       CONSTR9   368
    X99       CONSTR10  986
    X100      OBJ       752
    X100      CONSTR1   482
    X100      CONSTR2   431
    X100      CONSTR3   174
    X100      CONSTR4   618
    X100      CONSTR5   611
    X100      CONSTR6   33
    X100      CONSTR7   302
    X100      CONSTR8   838
    X100      CONSTR9   190
    X100      CONSTR10  542
    INT0001   'MARKER'  'INTEND'
RHS
    RHS10001  CONSTR1   35231
    RHS10001  CONSTR2   39240
    RHS10001  CONSTR3   40195
    RHS10001  CONSTR4   36290
    RHS10001  CONSTR5   40624
    RHS10001  CONSTR6   38124
    RHS10001  CONSTR7   35105
    RHS10001  CONSTR8   38802
    RHS10001  CONSTR9   36375
    RHS10001  CONSTR10  35741
BOUNDS
 BV BND       X1        .00
 BV BND       X2        .00
 BV BND       X3        .00
 BV BND       X4        .00
 BV BND       X5        .00
 BV BND       X6        .00
 BV BND       X7        .00
 BV BND       X8        .00
 BV BND       X9        .00
 BV BND       X10       .00
 BV BND       X11       .00
 BV BND       X12       .00
 BV BND       X13       .00
 BV BND       X14       .00
 BV BND       X15       .00
 BV BND       X16       .00
 BV BND       X17       .00
 BV BND       X18       .00
 BV BND       X19       .00
 BV BND       X20       .00
 BV BND       X21       .00
 BV BND       X22       .00
 BV BND       X23       .00
 BV BND       X24       .00
 BV BND       X25       .00
 BV BND       X26       .00
 BV BND       X27       .00
 BV BND       X28       .00
 BV BND       X29       .00
 BV BND       X30       .00
 BV BND       X31       .00
 BV BND       X32       .00
 BV BND       X33       .00
 BV BND       X34       .00
 BV BND       X35       .00
 BV BND       X36       .00
 BV BND       X37       .00
 BV BND       X38       .00
 BV BND       X39       .00
 BV BND       X40       .00
 BV BND       X41       .00
 BV BND       X42       .00
 BV BND       X43       .00
 BV BND       X44       .00
 BV BND       X45       .00
 BV BND       X46       .00
 BV BND       X47       .00
 BV BND       X48       .00
 BV BND       X49       .00
 BV BND       X50       .00
 BV BND       X51       .00
 BV BND       X52       .00
 BV BND       X53       .00
 BV BND       X54       .00
 BV BND       X55       .00
 BV BND       X56       .00
 BV BND       X57       .00
 BV BND       X58       .00
 BV BND       X59       .00
 BV BND       X60       .00
 BV BND       X61       .00
 BV BND       X62       .00
 BV BND       X63       .00
 BV BND       X64       .00
 BV BND       X65       .00
 BV BND       X66       .00
 BV BND       X67       .00
 BV BND       X68       .00
 BV BND       X69       .00
 BV BND       X70       .00
 BV BND       X71       .00
 BV BND       X72       .00
 BV BND       X73       .00
 BV BND       X74       .00
 BV BND       X75       .00
 BV BND       X76       .00
 BV BND       X77       .00
 BV BND       X78       .00
 BV BND       X79       .00
 BV BND       X80       .00
 BV BND       X81       .00
 BV BND       X82       .00
 BV BND       X83       .00
 BV BND       X84       .00
 BV BND       X85       .00
 BV BND       X86       .00
 BV BND       X87       .00
 BV BND       X88       .00
 BV BND       X89       .00
 BV BND       X90       .00
 BV BND       X91       .00
 BV BND       X92       .00
 BV BND       X93       .00
 BV BND       X94       .00
 BV BND       X95       .00
 BV BND       X96       .00
 BV BND       X97       .00
 BV BND       X98       .00
 BV BND       X99       .00
 BV BND       X100      .00
ENDATA
